50	100	100	100
55	81	63
62	93	72
77	69	59
51	68	56
74	78	72
55	73	73
79	80	72
69	85	69
92	96	67
85	67	61
93	82	82
53	76	66
67	54	83
89	72	96
79	68	58
84	51	87
80	98	96
75	83	82
84	82	62
59	51	93
76	53	91
51	68	61
66	76	68
99	87	84
94	56	62
69	77	66
85	99	92
69	80	84
87	53	69
57	72	88
51	76	51
67	72	82
64	51	86
73	60	75
95	59	55
97	70	68
78	94	76
74	60	99
62	55	56
71	66	78
75	90	65
75	70	73
60	50	94
84	76	68
61	74	85
53	93	79
84	74	76
69	58	76
97	73	67
55	87	53
